# Auto-generated by run_npt_lammps.py -- do not hand-edit, re-run the script instead.
# compound=PMC-001  model=mace-off23/medium  stage=equilibration
units           metal
read_restart    ../minimization/restart.restart
mass            1 12.0110
mass            2 1.0080
mass            3 14.0070
mass            4 15.9990
pair_style      mliap unified /home/chemistry/phd/cyz218376/himesh_work/mace_models/MACE-OFF23_medium.model-mliap_lammps.pt 0
pair_coeff      * * C H N O

timestep        0.001
velocity        all create 300.0 12345 dist gaussian mom yes rot yes
fix             1 all npt temp 300.0 300.0 0.1 iso 1.0 1.0 1.0

thermo          5000
thermo_style    custom step temp pe vol cella cellb cellc

restart         500 restart.restart restart.restart

run             200000 upto

write_restart   restart.restart
write_dump      all custom equil_final.lammpstrj id type x y z modify sort id
