# Auto-generated by run_npt_lammps.py -- do not hand-edit, re-run the script instead.
# compound=PMC-001  model=mace-off23/medium  stage=minimization
units           metal
atom_style      atomic
boundary        p p p
read_data       ../PMC-001.data
mass            1 12.0110
mass            2 1.0080
mass            3 14.0070
mass            4 15.9990
pair_style      mliap unified /home/chemistry/phd/cyz218376/himesh_work/mace_models/MACE-OFF23_medium.model-mliap_lammps.pt 0
pair_coeff      * * C H N O

# Minimization: no thermostat, no MD timestep dynamics -- just relaxing the
# raw CIF-derived geometry before any dynamics start.
thermo          10
thermo_style    custom step pe fnorm
minimize        1.0e-8 1.0e-8 2000 2000

write_dump      all custom minimized.lammpstrj id type x y z modify sort id
write_restart   restart.restart
